(set-option :print-success false)
(set-logic QF_UF)
(declare-sort x61 0)
(declare-sort x12 0)
(declare-fun x70 () x12)
(declare-fun x10 () x12)
(declare-fun x73 () x12)
(declare-fun x7 (x12 x12) x12)
(declare-fun x151 () x12)
(declare-fun x55 (x12 x12) x12)
(declare-fun x34 () x12)
(assert (or (and (not (= x70 (x7 x70 (x7 x70 x70)))) (and (not (= (x7 x151 (x7 x70 x151)) x70)) (and (and (not (= (x7 x73 (x7 x70 x73)) x70)) (not (= (x7 x10 (x7 x70 x10)) x70))) (not (= x70 (x7 x34 (x7 x70 x34))))))) (or (or (and (not (= (x7 x70 (x7 x34 x70)) x34)) (and (not (= x34 (x7 x151 (x7 x34 x151)))) (and (and (not (= (x7 x73 (x7 x34 x73)) x34)) (not (= (x7 x10 (x7 x34 x10)) x34))) (not (= (x7 x34 (x7 x34 x34)) x34))))) (or (and (and (not (= x10 (x7 x151 (x7 x10 x151)))) (and (not (= x10 (x7 x34 (x7 x10 x34)))) (and (not (= x10 (x7 x73 (x7 x10 x73)))) (not (= x10 (x7 x10 (x7 x10 x10))))))) (not (= (x7 x70 (x7 x10 x70)) x10))) (and (not (= x73 (x7 x70 (x7 x73 x70)))) (and (and (and (not (= x73 (x7 x10 (x7 x73 x10)))) (not (= x73 (x7 x73 (x7 x73 x73))))) (not (= (x7 x34 (x7 x73 x34)) x73))) (not (= (x7 x151 (x7 x73 x151)) x73)))))) (and (not (= x151 (x7 x70 (x7 x151 x70)))) (and (and (and (not (= (x7 x73 (x7 x151 x73)) x151)) (not (= x151 (x7 x10 (x7 x151 x10))))) (not (= (x7 x34 (x7 x151 x34)) x151))) (not (= (x7 x151 (x7 x151 x151)) x151)))))))
(assert (or (and (not (= x70 (x7 (x7 x70 x70) x70))) (and (and (and (not (= (x7 (x7 x70 x73) x70) x73)) (not (= x10 (x7 (x7 x70 x10) x70)))) (not (= x34 (x7 (x7 x70 x34) x70)))) (not (= x151 (x7 (x7 x70 x151) x70))))) (or (and (and (not (= (x7 (x7 x151 x151) x151) x151)) (and (and (not (= (x7 (x7 x151 x73) x151) x73)) (not (= x10 (x7 (x7 x151 x10) x151)))) (not (= x34 (x7 (x7 x151 x34) x151))))) (not (= (x7 (x7 x151 x70) x151) x70))) (or (or (and (and (not (= x151 (x7 (x7 x10 x151) x10))) (and (not (= (x7 (x7 x10 x34) x10) x34)) (and (not (= x10 (x7 (x7 x10 x10) x10))) (not (= (x7 (x7 x10 x73) x10) x73))))) (not (= x70 (x7 (x7 x10 x70) x10)))) (and (not (= x70 (x7 (x7 x73 x70) x73))) (and (and (and (not (= (x7 (x7 x73 x73) x73) x73)) (not (= x10 (x7 (x7 x73 x10) x73)))) (not (= x34 (x7 (x7 x73 x34) x73)))) (not (= (x7 (x7 x73 x151) x73) x151))))) (and (not (= x70 (x7 (x7 x34 x70) x34))) (and (not (= x151 (x7 (x7 x34 x151) x34))) (and (not (= (x7 (x7 x34 x34) x34) x34)) (and (not (= (x7 (x7 x34 x73) x34) x73)) (not (= x10 (x7 (x7 x34 x10) x34)))))))))))
(assert (or (or (or (and (not (= x70 (x7 x34 x70))) (and (and (not (= (x7 x34 x34) x34)) (and (not (= (x7 x34 x10) x10)) (not (= x73 (x7 x34 x73))))) (not (= (x7 x34 x151) x151)))) (or (and (not (= x70 (x7 x73 x70))) (and (not (= (x7 x73 x151) x151)) (and (and (not (= (x7 x73 x10) x10)) (not (= x73 (x7 x73 x73)))) (not (= (x7 x73 x34) x34))))) (and (not (= x70 (x7 x10 x70))) (and (and (not (= x34 (x7 x10 x34))) (and (not (= (x7 x10 x73) x73)) (not (= (x7 x10 x10) x10)))) (not (= (x7 x10 x151) x151)))))) (and (and (not (= (x7 x151 x151) x151)) (and (not (= x34 (x7 x151 x34))) (and (not (= x73 (x7 x151 x73))) (not (= x10 (x7 x151 x10)))))) (not (= x70 (x7 x151 x70))))) (and (and (not (= (x7 x70 x151) x151)) (and (and (not (= (x7 x70 x73) x73)) (not (= (x7 x70 x10) x10))) (not (= x34 (x7 x70 x34))))) (not (= x70 (x7 x70 x70))))))
(assert (let ((x83 (x7 x10 x70)) (x86 (x7 x70 x10)) (x157 (x7 x70 x151)) (x102 (x7 x70 x70)) (x71 (x7 x73 x151)) (x2 (x7 x73 x70)) (x159 (x7 x34 x34)) (x113 (x7 x34 x73)) (x21 (x7 x73 x10)) (x38 (x7 x10 x34)) (x81 (x7 x73 x73)) (x53 (x7 x10 x151)) (x90 (x7 x73 x34)) (x65 (x7 x151 x73)) (x116 (x7 x151 x151)) (x44 (x7 x151 x70)) (x136 (x7 x151 x34)) (x84 (x7 x70 x34)) (x88 (x7 x34 x70)) (x121 (x7 x10 x73)) (x108 (x7 x70 x73)) (x41 (x7 x151 x10)) (x49 (x7 x10 x10)) (x131 (x7 x34 x151)) (x17 (x7 x34 x10))) (let ((x18 (= x151 x49)) (x13 (= x70 x131)) (x4 (= x151 x159)) (x85 (= x70 x21)) (x128 (= x21 x73)) (x153 (= x108 x70)) (x154 (= x83 x34)) (x64 (= x73 x38)) (x35 (= x113 x34)) (x3 (= x41 x73)) (x101 (= x83 x151)) (x77 (= x10 x102)) (x46 (= x73 x44)) (x126 (= x88 x34)) (x132 (= x65 x10)) (x63 (= x151 x38)) (x103 (= x151 x131)) (x69 (= x151 x84)) (x158 (= x70 x116)) (x51 (= x34 x44)) (x137 (= x10 x116)) (x20 (= x10 x159)) (x94 (= x70 x53)) (x78 (= x151 x88)) (x72 (= x38 x10)) (x96 (= x131 x10)) (x143 (= x10 x157)) (x99 (= x10 x83)) (x27 (= x53 x34)) (x92 (= x49 x10)) (x111 (= x71 x73)) (x129 (= x88 x73)) (x47 (= x34 x49)) (x118 (= x53 x151)) (x26 (= x41 x151)) (x119 (= x2 x151)) (x29 (= x17 x70)) (x24 (= x73 x136)) (x112 (= x90 x73)) (x45 (= x10 x84)) (x74 (= x131 x73)) (x16 (= x44 x10)) (x87 (= x73 x81)) (x89 (= x86 x10)) (x138 (= x44 x70)) (x14 (= x2 x10)) (x150 (= x73 x102)) (x80 (= x73 x113)) (x32 (= x151 x17)) (x75 (= x86 x70)) (x155 (= x38 x70)) (x23 (= x10 x88)) (x52 (= x34 x90)) (x50 (= x159 x70)) (x36 (= x34 x136)) (x37 (= x116 x34)) (x91 (= x151 x116)) (x98 (= x121 x73)) (x149 (= x151 x71)) (x97 (= x131 x34)) (x141 (= x49 x73)) (x100 (= x84 x73)) (x152 (= x38 x34)) (x104 (= x108 x10)) (x125 (= x17 x73)) (x19 (= x21 x34)) (x9 (= x73 x116)) (x28 (= x41 x34)) (x93 (= x81 x34)) (x117 (= x83 x70)) (x58 (= x90 x70)) (x109 (= x151 x102)) (x106 (= x151 x81)) (x124 (= x71 x34)) (x6 (= x73 x108)) (x33 (= x65 x151)) (x67 (= x34 x86)) (x95 (= x157 x73)) (x11 (= x10 x21)) (x82 (= x73 x53)) (x156 (= x41 x10)) (x123 (= x151 x136)) (x1 (= x34 x121)) (x114 (= x34 x65)) (x42 (= x86 x151)) (x148 (= x136 x70)) (x30 (= x70 x81)) (x105 (= x73 x86)) (x79 (= x70 x65)) (x54 (= x157 x34)) (x135 (= x70 x88)) (x144 (= x151 x108)) (x57 (= x10 x17)) (x66 (= x34 x2)) (x130 (= x113 x10)) (x110 (= x159 x73)) (x115 (= x2 x70)) (x127 (= x90 x10)) (x40 (= x113 x151)) (x48 (= x10 x81)) (x142 (= x83 x73)) (x146 (= x90 x151)) (x139 (= x70 x121)) (x122 (= x73 x2)) (x56 (= x159 x34)) (x59 (= x70 x41)) (x147 (= x10 x136)) (x43 (= x71 x10)) (x134 (= x157 x151)) (x60 (= x70 x102)) (x15 (= x70 x157)) (x68 (= x102 x34)) (x107 (= x151 x121)) (x5 (= x34 x108)) (x62 (= x34 x84)) (x31 (= x151 x44)) (x8 (= x10 x121)) (x120 (= x17 x34)) (x22 (= x49 x70)) (x133 (= x70 x84)) (x140 (= x113 x70)) (x145 (= x73 x65)) (x76 (= x71 x70)) (x39 (= x53 x10)) (x25 (= x21 x151))) (and (and (and (and (and (and (and (or (or (or x40 (or x107 x106)) x33) x144) (or (or (or x146 (or x25 x106)) x149) x119)) (and (and (or (or x124 (or (or x19 x93) x52)) x66) (or (or x114 (or (or x93 x1) x35)) x5)) (and (and (or x14 (or x43 (or (or x48 x11) x127))) (or (or (or (or x48 x8) x130) x132) x104)) (and (or (or x145 (or x80 (or x98 x87))) x6) (or (or x111 (or (or x128 x87) x112)) x122))))) (and (or (or (or x58 (or x30 x85)) x76) x115) (or (or x79 (or (or x139 x30) x140)) x153))) (and (and (or (or x94 (or x155 (or x22 x139))) x117) (or (or (or (or x85 x22) x29) x59) x75)) (and (and (and (or (or x28 (or (or x47 x19) x120)) x67) (or (or (or (or x47 x1) x152) x27) x154)) (and (and (or (or (or x125 (or x128 x141)) x3) x105) (or (or (or x64 (or x98 x141)) x82) x142)) (and (or x99 (or x39 (or x72 (or x92 x8)))) (or x89 (or (or x57 (or x92 x11)) x156))))) (and (or x101 (or x118 (or (or x107 x18) x63))) (or x42 (or (or (or x18 x25) x32) x26)))))) (and (and (or (or (or x50 (or x155 x58)) x148) x133) (or (or x13 (or (or x29 x140) x50)) x135)) (and (and (and (and (or (or x147 (or (or x127 x72) x20)) x45) (or (or (or x20 (or x130 x57)) x96) x23)) (and (or x100 (or (or (or x112 x64) x110) x24)) (or (or (or (or x125 x80) x110) x74) x129))) (and (or x126 (or (or (or x120 x35) x56) x97)) (or (or x36 (or (or x52 x152) x56)) x62))) (and (or (or (or (or x146 x63) x4) x123) x69) (or (or (or x4 (or x40 x32)) x103) x78))))) (and (and (or (or (or x148 (or x59 x79)) x158) x138) (or x15 (or x158 (or (or x76 x94) x13)))) (and (and (and (or x51 (or x37 (or x36 (or x28 x114)))) (or (or (or x97 (or x124 x27)) x37) x54)) (and (and (or x16 (or x137 (or (or x132 x156) x147))) (or (or x137 (or x96 (or x39 x43))) x143)) (and (or x46 (or x9 (or x24 (or x145 x3)))) (or x95 (or (or x74 (or x111 x82)) x9))))) (and (or (or (or x123 (or x26 x33)) x91) x31) (or x134 (or x91 (or x103 (or x149 x118)))))))) (and (and (or x60 (or (or (or x117 x115) x135) x138)) (or x60 (or x15 (or (or x153 x75) x133)))) (and (and (or (or (or (or x144 x42) x69) x134) x109) (or x109 (or x31 (or (or x119 x101) x78)))) (and (and (or x68 (or (or (or x154 x66) x126) x51)) (or (or (or (or x67 x5) x62) x54) x68)) (and (and (or x150 (or (or (or x122 x142) x129) x46)) (or x150 (or (or x100 (or x105 x6)) x95))) (and (or (or (or (or x99 x14) x23) x16) x77) (or (or x143 (or x45 (or x104 x89))) x77))))))))))
(assert (or (= (x7 x70 x70) x70) (or (= (x7 x151 x151) x151) (or (= (x7 x34 x34) x34) (or (= x10 (x7 x10 x10)) (= (x7 x73 x73) x73))))))
(assert (let ((x125 (x7 x10 x10)) (x57 (x7 x151 x10)) (x120 (x7 x151 x34)) (x1 (x7 x73 x10)) (x41 (x7 x73 x73)) (x155 (x7 x70 x151)) (x107 (x7 x34 x73)) (x130 (x7 x10 x151)) (x35 (x7 x34 x151)) (x85 (x7 x70 x73)) (x52 (x7 x34 x70)) (x159 (x7 x10 x70)) (x152 (x7 x70 x34)) (x136 (x7 x34 x34)) (x132 (x7 x70 x70)) (x58 (x7 x151 x70)) (x47 (x7 x73 x34)) (x64 (x7 x10 x34)) (x140 (x7 x151 x151)) (x110 (x7 x34 x10)) (x25 (x7 x73 x151)) (x19 (x7 x10 x73)) (x131 (x7 x70 x10)) (x139 (x7 x73 x70)) (x18 (x7 x151 x73))) (let ((x71 (not (= x73 x107))) (x106 (not (= x73 x130))) (x153 (not (= x85 x70))) (x20 (not (= x10 x64))) (x22 (not (= x19 x10))) (x103 (not (= x34 x152))) (x81 (not (= x19 x73))) (x11 (not (= x73 x155))) (x30 (not (= x120 x73))) (x129 (not (= x25 x151))) (x112 (not (= x125 x10))) (x148 (not (= x34 x132))) (x23 (not (= x152 x151))) (x145 (not (= x10 x139))) (x53 (not (= x152 x73))) (x4 (not (= x35 x10))) (x56 (not (= x10 x18))) (x83 (not (= x52 x73))) (x157 (not (= x64 x34))) (x86 (not (= x10 x41))) (x123 (not (= x34 x139))) (x97 (not (= x34 x120))) (x105 (not (= x47 x151))) (x158 (not (= x125 x151))) (x135 (not (= x155 x70))) (x93 (not (= x57 x73))) (x29 (not (= x10 x140))) (x39 (not (= x107 x34))) (x114 (not (= x136 x34))) (x104 (not (= x120 x151))) (x62 (not (= x41 x70))) (x121 (not (= x64 x73))) (x87 (not (= x41 x73))) (x141 (not (= x73 x85))) (x124 (not (= x57 x34))) (x118 (not (= x34 x159))) (x91 (not (= x34 x52))) (x63 (not (= x10 x120))) (x147 (not (= x41 x34))) (x154 (not (= x125 x70))) (x116 (not (= x19 x34))) (x76 (not (= x41 x151))) (x108 (not (= x73 x25))) (x36 (not (= x25 x34))) (x14 (not (= x151 x131))) (x69 (not (= x18 x70))) (x113 (not (= x136 x73))) (x99 (not (= x151 x159))) (x3 (not (= x131 x10))) (x156 (not (= x132 x10))) (x44 (not (= x34 x1))) (x5 (not (= x58 x151))) (x75 (not (= x139 x70))) (x95 (not (= x64 x151))) (x17 (not (= x73 x132))) (x59 (not (= x58 x34))) (x51 (not (= x47 x70))) (x33 (not (= x34 x140))) (x32 (not (= x57 x10))) (x137 (not (= x34 x110))) (x50 (not (= x10 x85))) (x146 (not (= x10 x130))) (x100 (not (= x151 x110))) (x54 (not (= x70 x19))) (x26 (not (= x34 x85))) (x72 (not (= x110 x10))) (x49 (not (= x73 x131))) (x134 (not (= x25 x70))) (x128 (not (= x73 x140))) (x43 (not (= x34 x125))) (x15 (not (= x70 x159))) (x122 (not (= x151 x136))) (x144 (not (= x70 x64))) (x68 (not (= x110 x70))) (x119 (not (= x57 x70))) (x60 (not (= x70 x132))) (x66 (not (= x70 x1))) (x67 (not (= x151 x132))) (x2 (not (= x47 x73))) (x77 (not (= x151 x155))) (x142 (not (= x18 x151))) (x89 (not (= x151 x35))) (x133 (not (= x131 x70))) (x79 (not (= x155 x34))) (x126 (not (= x70 x107))) (x143 (not (= x85 x151))) (x82 (not (= x10 x52))) (x150 (not (= x130 x151))) (x117 (not (= x52 x70))) (x84 (not (= x10 x136))) (x13 (not (= x151 x1))) (x24 (not (= x10 x159))) (x8 (not (= x73 x139))) (x96 (not (= x47 x34))) (x149 (not (= x34 x131))) (x127 (not (= x47 x10))) (x40 (not (= x25 x10))) (x45 (not (= x140 x151))) (x115 (not (= x70 x152))) (x98 (not (= x35 x73))) (x74 (not (= x155 x10))) (x37 (not (= x34 x35))) (x88 (not (= x107 x10))) (x28 (not (= x34 x18))) (x78 (not (= x120 x70))) (x102 (not (= x139 x151))) (x65 (not (= x73 x18))) (x92 (not (= x73 x58))) (x46 (not (= x151 x57))) (x42 (not (= x70 x136))) (x111 (not (= x10 x152))) (x101 (not (= x130 x70))) (x38 (not (= x73 x159))) (x80 (not (= x10 x1))) (x27 (not (= x130 x34))) (x21 (not (= x73 x1))) (x16 (not (= x52 x151))) (x9 (not (= x10 x58))) (x48 (not (= x73 x110))) (x90 (not (= x73 x125))) (x109 (not (= x70 x140))) (x138 (not (= x58 x70))) (x6 (not (= x151 x107))) (x31 (not (= x35 x70))) (x94 (not (= x151 x19)))) (or (and (and (and (or x135 x138) (and (or x115 x117) (and (or x153 x75) (or x15 x133)))) (or x60 x60)) (and (and (and (and (or x31 x78) (and (and (or x126 x51) (or x68 x144)) (or x42 x42))) (or x115 x117)) (and (and (or x153 x75) (and (and (and (or x62 x62) (or x66 x54)) (or x126 x51)) (or x69 x134))) (and (or x15 x133) (and (or x101 x119) (and (and (or x54 x66) (or x154 x154)) (or x144 x68)))))) (and (or x135 x138) (and (or x109 x109) (and (and (or x101 x119) (or x134 x69)) (or x78 x31)))))) (or (or (or (and (and (and (or x92 x11) (and (and (or x30 x98) (and (or x93 x106) (or x108 x65))) (or x128 x128))) (and (and (and (or x8 x141) (and (and (and (or x87 x87) (or x81 x21)) (or x71 x2)) (or x65 x108))) (and (and (and (or x48 x121) (and (or x90 x90) (or x21 x81))) (or x106 x93)) (or x49 x38))) (and (and (or x30 x98) (and (and (or x48 x121) (or x71 x2)) (or x113 x113))) (or x83 x53)))) (and (or x17 x17) (and (and (or x83 x53) (and (or x141 x8) (or x49 x38))) (or x92 x11)))) (and (and (and (and (and (and (or x56 x40) (and (and (or x86 x86) (or x22 x80)) (or x127 x88))) (or x145 x50)) (and (and (and (and (or x112 x112) (or x80 x22)) (or x72 x20)) (or x146 x32)) (or x3 x24))) (and (or x111 x82) (and (and (or x84 x84) (and (or x88 x127) (or x72 x20))) (or x63 x4)))) (and (or x9 x74) (and (and (or x63 x4) (and (or x146 x32) (or x56 x40))) (or x29 x29)))) (and (or x156 x156) (and (and (or x111 x82) (and (or x3 x24) (or x50 x145))) (or x9 x74))))) (and (and (and (or x79 x59) (and (or x91 x103) (and (or x123 x26) (or x149 x118)))) (or x148 x148)) (and (and (and (or x91 x103) (and (and (and (or x157 x137) (or x39 x96)) (or x114 x114)) (or x37 x97))) (and (and (or x26 x123) (and (and (or x96 x39) (and (or x116 x44) (or x147 x147))) (or x36 x28))) (and (or x118 x149) (and (or x27 x124) (and (and (or x43 x43) (or x116 x44)) (or x157 x137)))))) (and (or x79 x59) (and (and (and (or x36 x28) (or x27 x124)) (or x97 x37)) (or x33 x33)))))) (and (and (and (or x77 x5) (and (or x45 x45) (and (or x89 x104) (and (or x150 x46) (or x129 x142))))) (and (and (and (and (or x46 x150) (and (and (or x94 x13) (or x158 x158)) (or x95 x100))) (or x99 x14)) (and (and (or x142 x129) (and (and (or x13 x94) (or x76 x76)) (or x6 x105))) (or x143 x102))) (and (or x23 x16) (and (or x104 x89) (and (or x122 x122) (and (or x105 x6) (or x100 x95))))))) (and (and (and (or x16 x23) (and (or x99 x14) (or x102 x143))) (or x5 x77)) (or x67 x67))))))))
(assert (or (and (= x70 (x7 (x7 x70 x70) x70)) (and (and (and (= (x7 (x7 x10 x70) x70) x10) (= x73 (x7 (x7 x73 x70) x70))) (= x34 (x7 (x7 x34 x70) x70))) (= x151 (x7 (x7 x151 x70) x70)))) (or (and (= (x7 (x7 x70 x151) x151) x70) (and (= (x7 (x7 x151 x151) x151) x151) (and (= x34 (x7 (x7 x34 x151) x151)) (and (= x73 (x7 (x7 x73 x151) x151)) (= (x7 (x7 x10 x151) x151) x10))))) (or (and (= (x7 (x7 x70 x34) x34) x70) (and (and (and (= x73 (x7 (x7 x73 x34) x34)) (= x10 (x7 (x7 x10 x34) x34))) (= x34 (x7 (x7 x34 x34) x34))) (= x151 (x7 (x7 x151 x34) x34)))) (or (and (and (and (= x34 (x7 (x7 x34 x73) x73)) (and (= x10 (x7 (x7 x10 x73) x73)) (= (x7 (x7 x73 x73) x73) x73))) (= x151 (x7 (x7 x151 x73) x73))) (= (x7 (x7 x70 x73) x73) x70)) (and (= (x7 (x7 x70 x10) x10) x70) (and (and (= x34 (x7 (x7 x34 x10) x10)) (and (= x10 (x7 (x7 x10 x10) x10)) (= (x7 (x7 x73 x10) x10) x73))) (= (x7 (x7 x151 x10) x10) x151))))))))
(assert (and (and (not (= x34 x70)) (and (and (not (= x70 x10)) (and (not (= x151 x10)) (and (not (= x34 x10)) (and (not (= x70 x73)) (and (not (= x151 x73)) (and (not (= x34 x73)) (not (= x10 x73)))))))) (not (= x34 x151)))) (not (= x70 x151))))
(assert (let ((x81 (x7 x10 x73)) (x53 (x7 x73 x70)) (x21 (x7 x34 x73)) (x93 (x7 x10 x34)) (x87 (x7 x73 x73)) (x65 (x7 x70 x10)) (x83 (x7 x10 x70)) (x30 (x7 x151 x34)) (x2 (x7 x73 x10)) (x128 (x7 x73 x151)) (x98 (x7 x70 x34)) (x8 (x7 x34 x151)) (x17 (x7 x70 x70)) (x11 (x7 x34 x70)) (x90 (x7 x151 x73)) (x49 (x7 x151 x151)) (x113 (x7 x151 x10)) (x108 (x7 x73 x34)) (x121 (x7 x34 x10)) (x106 (x7 x34 x34)) (x48 (x7 x10 x10)) (x141 (x7 x10 x151)) (x38 (x7 x70 x151)) (x92 (x7 x151 x70)) (x71 (x7 x70 x73))) (and (and (and (and (and (and (not (= x90 x71)) (and (and (not (= x21 x90)) (and (and (and (and (not (= x87 x71)) (and (and (not (= x21 x87)) (not (= x87 x81))) (not (= x90 x87)))) (not (= x21 x81))) (not (= x81 x90))) (not (= x71 x81)))) (not (= x21 x71)))) (and (and (not (= x65 x121)) (and (not (= x113 x121)) (and (not (= x65 x48)) (and (and (not (= x48 x121)) (and (and (and (not (= x121 x2)) (not (= x2 x48))) (not (= x113 x2))) (not (= x2 x65)))) (not (= x113 x48)))))) (not (= x65 x113)))) (and (and (and (and (and (not (= x30 x93)) (and (not (= x106 x93)) (and (and (not (= x108 x30)) (and (not (= x108 x93)) (not (= x106 x108)))) (not (= x98 x108))))) (not (= x98 x93))) (not (= x106 x30))) (not (= x98 x106))) (not (= x98 x30)))) (and (and (not (= x8 x38)) (and (not (= x8 x49)) (and (not (= x141 x38)) (and (and (and (not (= x128 x38)) (and (and (not (= x128 x141)) (not (= x8 x128))) (not (= x49 x128)))) (not (= x8 x141))) (not (= x141 x49)))))) (not (= x49 x38)))) (and (not (= x17 x92)) (and (and (not (= x11 x92)) (and (and (and (not (= x83 x11)) (and (not (= x17 x53)) (and (not (= x92 x53)) (and (not (= x83 x53)) (not (= x11 x53)))))) (not (= x92 x83))) (not (= x83 x17)))) (not (= x17 x11))))) (and (and (and (not (= x98 x17)) (and (not (= x98 x38)) (and (and (not (= x38 x65)) (and (not (= x65 x98)) (and (not (= x71 x17)) (and (not (= x38 x71)) (and (not (= x71 x98)) (not (= x65 x71))))))) (not (= x65 x17))))) (not (= x38 x17))) (and (and (and (and (and (and (not (= x121 x11)) (and (and (and (not (= x21 x11)) (and (not (= x21 x8)) (and (not (= x21 x121)) (not (= x21 x106))))) (not (= x106 x121))) (not (= x8 x121)))) (not (= x8 x106))) (not (= x106 x11))) (not (= x11 x8))) (and (and (and (not (= x93 x83)) (and (and (and (and (and (and (not (= x81 x141)) (and (not (= x81 x93)) (not (= x81 x48)))) (not (= x81 x83))) (not (= x93 x48))) (not (= x141 x48))) (not (= x48 x83))) (not (= x93 x141)))) (not (= x83 x141))) (and (and (and (not (= x128 x108)) (and (not (= x2 x53)) (and (and (not (= x108 x2)) (and (not (= x87 x53)) (and (and (not (= x87 x2)) (not (= x108 x87))) (not (= x128 x87))))) (not (= x2 x128))))) (not (= x53 x108))) (not (= x128 x53))))) (and (not (= x92 x49)) (and (and (and (not (= x92 x113)) (and (not (= x49 x113)) (and (and (and (and (not (= x113 x90)) (not (= x90 x30))) (not (= x90 x49))) (not (= x92 x90))) (not (= x113 x30))))) (not (= x49 x30))) (not (= x30 x92)))))))))
(assert (let ((x90 (x7 x151 x151)) (x71 (x7 x70 x70)) (x21 (x7 x34 x34)) (x81 (x7 x10 x10)) (x87 (x7 x73 x73))) (or (and (not (= x70 x71)) (and (not (= x90 x70)) (and (and (not (= x87 x70)) (not (= x70 x81))) (not (= x70 x21))))) (or (or (and (not (= x34 x71)) (and (and (and (not (= x34 x87)) (not (= x81 x34))) (not (= x34 x21))) (not (= x34 x90)))) (or (and (not (= x71 x10)) (and (and (not (= x21 x10)) (and (not (= x81 x10)) (not (= x10 x87)))) (not (= x90 x10)))) (and (and (and (not (= x73 x21)) (and (not (= x73 x87)) (not (= x81 x73)))) (not (= x90 x73))) (not (= x73 x71))))) (and (not (= x151 x71)) (and (not (= x90 x151)) (and (not (= x151 x21)) (and (not (= x87 x151)) (not (= x151 x81))))))))))
(assert (not (and (and (and (and (and (= (x7 x70 x73) x151) (and (= x10 (x7 x151 x70)) (and (= (x7 x151 x151) x34) (and (and (= x73 (x7 x151 x10)) (and (= (x7 x151 x73) x70) (and (and (and (= (x7 x34 x34) x70) (and (and (and (= (x7 x10 x70) x70) (and (and (= (x7 x10 x34) x73) (and (and (= (x7 x10 x73) x10) (and (and (= x70 (x7 x73 x151)) (and (and (= x151 (x7 x73 x10)) (= x73 (x7 x73 x73))) (= x10 (x7 x73 x34)))) (= (x7 x73 x70) x34))) (= (x7 x10 x10) x34))) (= (x7 x10 x151) x151))) (= x34 (x7 x34 x73))) (= (x7 x34 x10) x10))) (= (x7 x34 x151) x73)) (= (x7 x34 x70) x151)))) (= (x7 x151 x34) x151))))) (= x70 (x7 x70 x10))) (= x34 (x7 x70 x34))) (= (x7 x70 x151) x10)) (= (x7 x70 x70) x73))))
(assert (and (or (or (= x151 (x7 x70 (x7 x70 x151))) (or (= (x7 x70 (x7 x70 x34)) x34) (or (= (x7 x70 (x7 x70 x73)) x73) (= x10 (x7 x70 (x7 x70 x10)))))) (= (x7 x70 (x7 x70 x70)) x70)) (and (or (or (or (or (= x73 (x7 x151 (x7 x151 x73))) (= x10 (x7 x151 (x7 x151 x10)))) (= (x7 x151 (x7 x151 x34)) x34)) (= x151 (x7 x151 (x7 x151 x151)))) (= (x7 x151 (x7 x151 x70)) x70)) (and (and (or (= x70 (x7 x73 (x7 x73 x70))) (or (or (= x34 (x7 x73 (x7 x73 x34))) (or (= x73 (x7 x73 (x7 x73 x73))) (= x10 (x7 x73 (x7 x73 x10))))) (= x151 (x7 x73 (x7 x73 x151))))) (or (or (or (or (= x73 (x7 x10 (x7 x10 x73))) (= (x7 x10 (x7 x10 x10)) x10)) (= x34 (x7 x10 (x7 x10 x34)))) (= (x7 x10 (x7 x10 x151)) x151)) (= (x7 x10 (x7 x10 x70)) x70))) (or (= (x7 x34 (x7 x34 x70)) x70) (or (= x151 (x7 x34 (x7 x34 x151))) (or (= x34 (x7 x34 (x7 x34 x34))) (or (= x10 (x7 x34 (x7 x34 x10))) (= x73 (x7 x34 (x7 x34 x73)))))))))))
(assert (and (and (and (= x34 (x7 x10 x10)) (= x73 (x7 x10 x34))) (= x151 (x7 x70 x73))) (= x70 (x7 x34 x34))))
(assert (let ((x90 (x7 x151 x73)) (x38 (x7 x70 x151)) (x93 (x7 x10 x34)) (x48 (x7 x10 x10)) (x141 (x7 x10 x151)) (x98 (x7 x70 x34)) (x49 (x7 x151 x151)) (x8 (x7 x34 x151)) (x113 (x7 x151 x10)) (x83 (x7 x10 x70)) (x128 (x7 x73 x151)) (x2 (x7 x73 x10)) (x30 (x7 x151 x34)) (x121 (x7 x34 x10)) (x81 (x7 x10 x73)) (x71 (x7 x70 x73)) (x106 (x7 x34 x34)) (x108 (x7 x73 x34)) (x53 (x7 x73 x70)) (x17 (x7 x70 x70)) (x87 (x7 x73 x73)) (x92 (x7 x151 x70)) (x21 (x7 x34 x73)) (x11 (x7 x34 x70)) (x65 (x7 x70 x10))) (and (or (= x70 (x7 x17 x17)) (or (or (or (= (x7 x53 x53) x73) (= x10 (x7 x83 x83))) (= (x7 x11 x11) x34)) (= x151 (x7 x92 x92)))) (and (or (or (= (x7 x49 x49) x151) (or (= (x7 x8 x8) x34) (or (= (x7 x141 x141) x10) (= (x7 x128 x128) x73)))) (= (x7 x38 x38) x70)) (and (or (= (x7 x98 x98) x70) (or (or (or (= (x7 x108 x108) x73) (= x10 (x7 x93 x93))) (= x34 (x7 x106 x106))) (= (x7 x30 x30) x151))) (and (or (or (= x151 (x7 x90 x90)) (or (= x34 (x7 x21 x21)) (or (= (x7 x87 x87) x73) (= (x7 x81 x81) x10)))) (= (x7 x71 x71) x70)) (or (= (x7 x65 x65) x70) (or (or (= (x7 x121 x121) x34) (or (= (x7 x48 x48) x10) (= (x7 x2 x2) x73))) (= (x7 x113 x113) x151)))))))))
(assert (let ((x141 (x7 x151 x10)) (x92 (x7 x70 x151)) (x65 (x7 x10 x70)) (x98 (x7 x34 x70)) (x113 (x7 x10 x151)) (x128 (x7 x151 x73)) (x90 (x7 x73 x151)) (x81 (x7 x73 x10)) (x11 (x7 x70 x34)) (x17 (x7 x70 x70)) (x21 (x7 x73 x34)) (x108 (x7 x34 x73)) (x30 (x7 x34 x151)) (x2 (x7 x10 x73)) (x87 (x7 x73 x73)) (x71 (x7 x73 x70)) (x106 (x7 x34 x34)) (x49 (x7 x151 x151)) (x93 (x7 x34 x10)) (x8 (x7 x151 x34)) (x83 (x7 x70 x10)) (x48 (x7 x10 x10)) (x38 (x7 x151 x70)) (x53 (x7 x70 x73)) (x121 (x7 x10 x34))) (or (and (not (= (x7 x17 x17) x70)) (and (and (not (= (x7 x11 x11) x34)) (and (not (= (x7 x53 x53) x73)) (not (= (x7 x83 x83) x10)))) (not (= x151 (x7 x92 x92))))) (or (or (and (not (= x70 (x7 x98 x98))) (and (and (not (= x34 (x7 x106 x106))) (and (not (= (x7 x93 x93) x10)) (not (= (x7 x108 x108) x73)))) (not (= (x7 x30 x30) x151)))) (or (and (and (not (= x151 (x7 x113 x113))) (and (and (not (= x10 (x7 x48 x48))) (not (= (x7 x2 x2) x73))) (not (= x34 (x7 x121 x121))))) (not (= x70 (x7 x65 x65)))) (and (and (not (= (x7 x90 x90) x151)) (and (and (not (= x73 (x7 x87 x87))) (not (= x10 (x7 x81 x81)))) (not (= (x7 x21 x21) x34)))) (not (= (x7 x71 x71) x70))))) (and (not (= x70 (x7 x38 x38))) (and (and (and (not (= (x7 x141 x141) x10)) (not (= (x7 x128 x128) x73))) (not (= x34 (x7 x8 x8)))) (not (= x151 (x7 x49 x49)))))))))
(assert (or (and (and (and (not (= (x7 (x7 x34 x70) x70) x34)) (and (not (= x73 (x7 (x7 x73 x70) x70))) (not (= x10 (x7 (x7 x10 x70) x70))))) (not (= (x7 (x7 x151 x70) x70) x151))) (not (= (x7 (x7 x70 x70) x70) x70))) (or (or (or (and (not (= x70 (x7 (x7 x70 x73) x73))) (and (and (and (not (= x73 (x7 (x7 x73 x73) x73))) (not (= (x7 (x7 x10 x73) x73) x10))) (not (= (x7 (x7 x34 x73) x73) x34))) (not (= (x7 (x7 x151 x73) x73) x151)))) (and (not (= x70 (x7 (x7 x70 x10) x10))) (and (not (= x151 (x7 (x7 x151 x10) x10))) (and (and (not (= (x7 (x7 x73 x10) x10) x73)) (not (= x10 (x7 (x7 x10 x10) x10)))) (not (= x34 (x7 (x7 x34 x10) x10))))))) (and (not (= (x7 (x7 x70 x34) x34) x70)) (and (not (= x151 (x7 (x7 x151 x34) x34))) (and (not (= x34 (x7 (x7 x34 x34) x34))) (and (not (= x73 (x7 (x7 x73 x34) x34))) (not (= x10 (x7 (x7 x10 x34) x34)))))))) (and (and (not (= x151 (x7 (x7 x151 x151) x151))) (and (and (not (= x10 (x7 (x7 x10 x151) x151))) (not (= (x7 (x7 x73 x151) x151) x73))) (not (= x34 (x7 (x7 x34 x151) x151))))) (not (= (x7 (x7 x70 x151) x151) x70))))))
(assert (let ((x21 (x7 x10 x10)) (x2 (x7 x70 x70)) (x81 (x7 x73 x73)) (x90 (x7 x34 x34)) (x71 (x7 x151 x151))) (let ((x121 (= x21 x10)) (x106 (= x34 x90)) (x98 (= x2 x70)) (x87 (= x73 x81)) (x30 (= x151 x71))) (let ((x65 (and (not (= x2 x34)) (and (and (and (not (= x34 x81)) (not (= x34 x21))) (not x106)) (not (= x34 x71))))) (x48 (and (and (and (and (not (= x73 x21)) (not x87)) (not (= x73 x90))) (not (= x73 x71))) (not (= x2 x73)))) (x93 (and (and (not (= x71 x70)) (and (and (not (= x70 x21)) (not (= x81 x70))) (not (= x90 x70)))) (not x98))) (x108 (and (and (and (not (= x90 x151)) (and (not (= x151 x81)) (not (= x151 x21)))) (not x30)) (not (= x2 x151)))) (x113 (and (not (= x2 x10)) (and (and (not (= x10 x90)) (and (not x121) (not (= x81 x10)))) (not (= x10 x71)))))) (or (or (or (or (or (and (= (x7 x34 x151) x34) x108) (or (or (and x48 (= x34 (x7 x34 x73))) (and (= (x7 x34 x10) x34) x113)) (and x106 x65))) (and (= (x7 x34 x70) x34) x93)) (or (or (or (or (or (and x113 (= x73 (x7 x73 x10))) (and x87 x48)) (and (= x73 (x7 x73 x34)) x65)) (and (= (x7 x73 x151) x73) x108)) (and x93 (= x73 (x7 x73 x70)))) (or (or (and (= x10 (x7 x10 x151)) x108) (or (or (and x48 (= (x7 x10 x73) x10)) (and x113 x121)) (and x65 (= x10 (x7 x10 x34))))) (and x93 (= (x7 x10 x70) x10))))) (or (or (or (or (and x48 (= (x7 x151 x73) x151)) (and (= x151 (x7 x151 x10)) x113)) (and (= x151 (x7 x151 x34)) x65)) (and x108 x30)) (and x93 (= x151 (x7 x151 x70))))) (or (or (and x108 (= x70 (x7 x70 x151))) (or (and (= (x7 x70 x34) x70) x65) (or (and x113 (= x70 (x7 x70 x10))) (and (= (x7 x70 x73) x70) x48)))) (and x93 x98)))))))
(assert (let ((x93 (x7 x34 x10)) (x8 (x7 x151 x34)) (x121 (x7 x10 x34)) (x141 (x7 x151 x10)) (x38 (x7 x151 x70)) (x71 (x7 x73 x70)) (x65 (x7 x10 x70)) (x106 (x7 x34 x34)) (x53 (x7 x70 x73)) (x108 (x7 x34 x73)) (x90 (x7 x73 x151)) (x30 (x7 x34 x151)) (x49 (x7 x151 x151)) (x83 (x7 x70 x10)) (x128 (x7 x151 x73)) (x92 (x7 x70 x151)) (x98 (x7 x34 x70)) (x87 (x7 x73 x73)) (x2 (x7 x10 x73)) (x113 (x7 x10 x151)) (x11 (x7 x70 x34)) (x21 (x7 x73 x34)) (x48 (x7 x10 x10)) (x81 (x7 x73 x10)) (x17 (x7 x70 x70))) (and (and (and (and (and (and (and (and (or (or (or (= x87 x34) (or (= x87 x10) (= x87 x73))) (= x151 x87)) (= x87 x70)) (or (= x81 x70) (or (= x151 x81) (or (= x81 x34) (or (= x81 x73) (= x10 x81)))))) (or (or (or (= x21 x34) (or (= x21 x10) (= x73 x21))) (= x151 x21)) (= x70 x21))) (or (or (or (= x34 x90) (or (= x90 x73) (= x90 x10))) (= x90 x151)) (= x90 x70))) (or (= x71 x70) (or (or (= x34 x71) (or (= x10 x71) (= x73 x71))) (= x71 x151)))) (and (or (= x65 x70) (or (= x151 x65) (or (or (= x65 x10) (= x65 x73)) (= x34 x65)))) (and (and (or (or (= x151 x121) (or (= x34 x121) (or (= x121 x10) (= x73 x121)))) (= x70 x121)) (and (or (= x70 x48) (or (= x151 x48) (or (= x34 x48) (or (= x48 x73) (= x48 x10))))) (or (= x2 x70) (or (= x2 x151) (or (= x2 x34) (or (= x2 x73) (= x10 x2))))))) (or (or (= x151 x113) (or (= x34 x113) (or (= x10 x113) (= x73 x113)))) (= x113 x70))))) (and (or (or (or (= x34 x98) (or (= x73 x98) (= x98 x10))) (= x98 x151)) (= x70 x98)) (and (or (= x30 x70) (or (= x151 x30) (or (= x30 x34) (or (= x10 x30) (= x73 x30))))) (and (or (or (= x151 x106) (or (or (= x106 x10) (= x73 x106)) (= x106 x34))) (= x106 x70)) (and (or (or (or (or (= x93 x10) (= x93 x73)) (= x34 x93)) (= x93 x151)) (= x70 x93)) (or (= x70 x108) (or (or (= x108 x34) (or (= x10 x108) (= x108 x73))) (= x151 x108)))))))) (and (and (and (and (or (or (= x151 x141) (or (= x34 x141) (or (= x141 x73) (= x10 x141)))) (= x141 x70)) (or (or (= x151 x128) (or (= x128 x34) (or (= x128 x73) (= x128 x10)))) (= x70 x128))) (or (= x8 x70) (or (= x8 x151) (or (or (= x8 x10) (= x73 x8)) (= x34 x8))))) (or (= x49 x70) (or (or (or (= x49 x10) (= x49 x73)) (= x34 x49)) (= x49 x151)))) (or (= x38 x70) (or (or (= x34 x38) (or (= x38 x73) (= x10 x38))) (= x151 x38))))) (and (and (and (or (or (or (= x34 x11) (or (= x10 x11) (= x73 x11))) (= x151 x11)) (= x70 x11)) (and (or (or (= x151 x53) (or (= x53 x34) (or (= x53 x73) (= x53 x10)))) (= x70 x53)) (or (or (= x151 x83) (or (or (= x83 x73) (= x10 x83)) (= x34 x83))) (= x70 x83)))) (or (= x92 x70) (or (= x151 x92) (or (= x92 x34) (or (= x10 x92) (= x73 x92)))))) (or (= x17 x70) (or (or (or (= x10 x17) (= x17 x73)) (= x17 x34)) (= x151 x17)))))))
(check-sat)
(exit)
